137978
104,37,103,10,40,66,94,53,70,84,47,72,1,32,52,83,38,35,36,48,69,17,6,31,62,34,74,14,3,102,60,13,46,99,50,81,71,44,24,85,45,76,61,21,20,16,89,63,15,19,55,39,5,87,12,30,64,51,4,29,28,54,96,7,105,97,68,80,41,18,98,67,49,25,8,91,22,11,92,88,79,56,82,33,73,101,23,75,57,0,86,27,26,9,58,65,43,42,78,90,59,95,77,93,2,100
